MAXIMIZE
119 z0 + 187 z1 + 997 z2 + 22 z3 + 347 z4 + 522 z5 + 730 z6 + 705 z7 + 232 z8 + 554 z9 + 675 z10 + 970 z11 + 407 z12 + 276 z13 + 331 z14 + 361 z15 + 798 z16 + 427 z17 + 439 z18 + 91 z19 + 650 z20 + 10 z21 + 838 z22 + 725 z23 + 843 z24 + 137 z25 + 977 z26 + 718 z27 + 99 z28 + 609 z29 + 819 z30 + 97 z31 + 975 z32 + 226 z33 + 241 z34 + 584 z35 + 348 z36 + 475 z37 + 178 z38 + 641 z39 + 898 z40 + 250 z41 + 391 z42 + 101 z43 + 636 z44 + 87 z45 + 652 z46 + 867 z47 + 54 z48 + 509 z49 + 989 z50 + 129 z51 + 597 z52 + 513 z53 + 201 z54 + 227 z55 + 82 z56 + 296 z57 + 802 z58 + 537 z59 + 943 z60 + 997 z61 + 642 z62 + 205 z63 + 551 z64 + 904 z65 + 400 z66 + 250 z67 + 586 z68 + 631 z69 + 752 z70 + 510 z71 + 542 z72 + 576 z73 + 550 z74 + 504 z75 + 702 z76 + 20 z77 + 179 z78 + 770 z79 + 95 z80 + 598 z81 + 885 z82 + 239 z83 + 37 z84 + 898 z85 + 923 z86 + 261 z87 + 786 z88 + 46 z89 + 438 z90 + 116 z91 + 503 z92 + 603 z93 + 194 z94 + 341 z95 + 545 z96 + 52 z97 + 810 z98 + 260 z99 + 197 z100 + 213 z101 + 462 z102 + 62 z103 + 203 z104 + 269 z105 + 160 z106 + 747 z107 + 174 z108 + 700 z109 + 114 z110 + 412 z111 + 905 z112 + 109 z113 + 369 z114 + 525 z115 + 987 z116 + 660 z117 + 149 z118 + 764 z119 + 396 z120 + 905 z121 + 30 z122 + 384 z123 + 981 z124 + 483 z125 + 176 z126 + 570 z127 + 891 z128 + 446 z129 + 567 z130 + 646 z131 + 229 z132 + 893 z133 + 723 z134 + 771 z135 + 329 z136 + 279 z137 + 253 z138 + 262 z139 + 802 z140 + 861 z141 + 127 z142 + 131 z143 + 460 z144 + 290 z145 + 296 z146 + 172 z147 + 158 z148 + 241 z149 + 301 z150 + 958 z151 + 694 z152 + 594 z153 + 145 z154 + 819 z155 + 672 z156 + 638 z157 + 645 z158 + 915 z159 + 879 z160 + 14 z161 + 975 z162 + 185 z163 + 466 z164 + 511 z165 + 767 z166 + 579 z167 + 496 z168 + 119 z169 + 829 z170 + 858 z171 + 547 z172 + 801 z173 + 28 z174 + 269 z175 + 113 z176 + 293 z177 + 410 z178 + 850 z179 + 237 z180 + 552 z181 + 117 z182 + 45 z183 + 42 z184 + 722 z185 + 710 z186 + 110 z187 + 800 z188 + 618 z189 + 129 z190 + 887 z191 + 692 z192 + 604 z193 + 35 z194 + 963 z195 + 108 z196 + 411 z197 + 426 z198 + 104 z199 + 208 z200 + 542 z201 + 248 z202 + 237 z203 + 922 z204 + 678 z205 + 392 z206 + 516 z207 + 422 z208 + 582 z209 + 327 z210 + 97 z211 + 378 z212 + 362 z213 + 124 z214 + 376 z215 + 167 z216 + 680 z217 + 679 z218 + 330 z219 + 613 z220 + 345 z221 + 181 z222 + 576 z223 + 698 z224 + 312 z225 + 122 z226 + 158 z227 + 476 z228 + 873 z229 + 477 z230 + 857 z231 + 681 z232 + 3 z233 + 167 z234 + 337 z235 + 134 z236 + 198 z237 + 219 z238 + 151 z239 + 717 z240 + 181 z241 + 39 z242 + 191 z243 + 652 z244 + 293 z245 + 90 z246 + 319 z247 + 516 z248 + 156 z249 + 11 z250 + 526 z251 + 335 z252 + 74 z253 + 968 z254 + 701 z255 + 409 z256 + 722 z257 + 356 z258 + 833 z259 + 512 z260 + 977 z261 + 782 z262 + 974 z263 + 116 z264 + 334 z265 + 400 z266 + 909 z267 + 255 z268 + 32 z269 + 222 z270 + 150 z271 + 100 z272 + 611 z273 + 851 z274 + 766 z275 + 771 z276 + 386 z277 + 791 z278
SUBJECT TO
1 z0 + 896 z1 + 367 z2 + 690 z3 + 613 z4 + 874 z5 + 122 z6 + 486 z7 + 823 z8 + 463 z9 + 589 z10 + 325 z11 + 1000 z12 + 776 z13 + 123 z14 + 356 z15 + 305 z16 + 47 z17 + 645 z18 + 139 z19 + 247 z20 + 211 z21 + 100 z22 + 627 z23 + 760 z24 + 776 z25 + 475 z26 + 937 z27 + 101 z28 + 281 z29 + 751 z30 + 530 z31 + 240 z32 + 248 z33 + 768 z34 + 31 z35 + 613 z36 + 881 z37 + 367 z38 + 712 z39 + 410 z40 + 157 z41 + 824 z42 + 242 z43 + 472 z44 + 722 z45 + 775 z46 + 371 z47 + 337 z48 + 885 z49 + 204 z50 + 594 z51 + 226 z52 + 226 z53 + 921 z54 + 537 z55 + 112 z56 + 959 z57 + 392 z58 + 709 z59 + 940 z60 + 943 z61 + 79 z62 + 922 z63 + 361 z64 + 947 z65 + 861 z66 + 937 z67 + 754 z68 + 872 z69 + 636 z70 + 459 z71 + 390 z72 + 141 z73 + 111 z74 + 588 z75 + 6 z76 + 155 z77 + 723 z78 + 723 z79 + 667 z80 + 829 z81 + 487 z82 + 590 z83 + 370 z84 + 823 z85 + 173 z86 + 56 z87 + 977 z88 + 681 z89 + 689 z90 + 933 z91 + 809 z92 + 587 z93 + 686 z94 + 466 z95 + 356 z96 + 784 z97 + 862 z98 + 223 z99 + 541 z100 + 61 z101 + 416 z102 + 62 z103 + 205 z104 + 152 z105 + 913 z106 + 267 z107 + 249 z108 + 187 z109 + 174 z110 + 939 z111 + 519 z112 + 56 z113 + 381 z114 + 551 z115 + 128 z116 + 812 z117 + 753 z118 + 544 z119 + 684 z120 + 830 z121 + 725 z122 + 330 z123 + 115 z124 + 38 z125 + 445 z126 + 619 z127 + 648 z128 + 896 z129 + 658 z130 + 306 z131 + 806 z132 + 800 z133 + 612 z134 + 354 z135 + 300 z136 + 174 z137 + 751 z138 + 126 z139 + 603 z140 + 665 z141 + 209 z142 + 308 z143 + 308 z144 + 677 z145 + 863 z146 + 292 z147 + 444 z148 + 295 z149 + 413 z150 + 72 z151 + 321 z152 + 981 z153 + 797 z154 + 507 z155 + 715 z156 + 512 z157 + 892 z158 + 76 z159 + 22 z160 + 643 z161 + 866 z162 + 74 z163 + 508 z164 + 243 z165 + 776 z166 + 326 z167 + 694 z168 + 662 z169 + 17 z170 + 654 z171 + 129 z172 + 662 z173 + 123 z174 + 182 z175 + 554 z176 + 421 z177 + 685 z178 + 470 z179 + 77 z180 + 264 z181 + 624 z182 + 961 z183 + 55 z184 + 254 z185 + 880 z186 + 921 z187 + 809 z188 + 680 z189 + 554 z190 + 62 z191 + 573 z192 + 568 z193 + 37 z194 + 910 z195 + 632 z196 + 211 z197 + 67 z198 + 763 z199 + 568 z200 + 681 z201 + 814 z202 + 514 z203 + 326 z204 + 41 z205 + 909 z206 + 192 z207 + 59 z208 + 352 z209 + 678 z210 + 885 z211 + 596 z212 + 400 z213 + 411 z214 + 746 z215 + 535 z216 + 82 z217 + 399 z218 + 412 z219 + 636 z220 + 983 z221 + 360 z222 + 120 z223 + 870 z224 + 808 z225 + 4 z226 + 391 z227 + 810 z228 + 819 z229 + 958 z230 + 209 z231 + 717 z232 + 359 z233 + 895 z234 + 419 z235 + 504 z236 + 588 z237 + 719 z238 + 323 z239 + 341 z240 + 965 z241 + 859 z242 + 456 z243 + 760 z244 + 135 z245 + 390 z246 + 780 z247 + 496 z248 + 1 z249 + 906 z250 + 171 z251 + 437 z252 + 164 z253 + 142 z254 + 876 z255 + 265 z256 + 762 z257 + 319 z258 + 780 z259 + 41 z260 + 33 z261 + 720 z262 + 887 z263 + 907 z264 + 551 z265 + 732 z266 + 969 z267 + 679 z268 + 228 z269 + 168 z270 + 654 z271 + 48 z272 + 549 z273 + 260 z274 + 112 z275 + 450 z276 + 925 z277 + 240 z278 <= 12718
BINARIES
z0
z1
z2
z3
z4
z5
z6
z7
z8
z9
z10
z11
z12
z13
z14
z15
z16
z17
z18
z19
z20
z21
z22
z23
z24
z25
z26
z27
z28
z29
z30
z31
z32
z33
z34
z35
z36
z37
z38
z39
z40
z41
z42
z43
z44
z45
z46
z47
z48
z49
z50
z51
z52
z53
z54
z55
z56
z57
z58
z59
z60
z61
z62
z63
z64
z65
z66
z67
z68
z69
z70
z71
z72
z73
z74
z75
z76
z77
z78
z79
z80
z81
z82
z83
z84
z85
z86
z87
z88
z89
z90
z91
z92
z93
z94
z95
z96
z97
z98
z99
z100
z101
z102
z103
z104
z105
z106
z107
z108
z109
z110
z111
z112
z113
z114
z115
z116
z117
z118
z119
z120
z121
z122
z123
z124
z125
z126
z127
z128
z129
z130
z131
z132
z133
z134
z135
z136
z137
z138
z139
z140
z141
z142
z143
z144
z145
z146
z147
z148
z149
z150
z151
z152
z153
z154
z155
z156
z157
z158
z159
z160
z161
z162
z163
z164
z165
z166
z167
z168
z169
z170
z171
z172
z173
z174
z175
z176
z177
z178
z179
z180
z181
z182
z183
z184
z185
z186
z187
z188
z189
z190
z191
z192
z193
z194
z195
z196
z197
z198
z199
z200
z201
z202
z203
z204
z205
z206
z207
z208
z209
z210
z211
z212
z213
z214
z215
z216
z217
z218
z219
z220
z221
z222
z223
z224
z225
z226
z227
z228
z229
z230
z231
z232
z233
z234
z235
z236
z237
z238
z239
z240
z241
z242
z243
z244
z245
z246
z247
z248
z249
z250
z251
z252
z253
z254
z255
z256
z257
z258
z259
z260
z261
z262
z263
z264
z265
z266
z267
z268
z269
z270
z271
z272
z273
z274
z275
z276
z277
z278
END